NAME          
ROWS
 N  OBJ
 L  c1
 L  c2
 L  c3
 L  c4
COLUMNS
    MARKER    'MARKER'                 'INTORG'
    x[1]      c1        563
    x[1]      c2        642
    x[1]      c3        322
    x[1]      c4        700
    x[1]      OBJ       -207
    x[2]      c1        305
    x[2]      c2        361
    x[2]      c3        123
    x[2]      c4        116
    x[2]      OBJ       -93
    x[3]      c1        980
    x[3]      c2        192
    x[3]      c3        959
    x[3]      c4        721
    x[3]      OBJ       -734
    x[4]      c1        911
    x[4]      c2        370
    x[4]      c3        596
    x[4]      c4        395
    x[4]      OBJ       -972
    x[5]      c1        223
    x[5]      c2        787
    x[5]      c3        439
    x[5]      c4        49
    x[5]      OBJ       -323
    x[6]      c1        880
    x[6]      c2        464
    x[6]      c3        856
    x[6]      c4        416
    x[6]      OBJ       -225
    x[7]      c1        947
    x[7]      c2        439
    x[7]      c3        972
    x[7]      c4        641
    x[7]      OBJ       -889
    x[8]      c1        184
    x[8]      c2        866
    x[8]      c3        20
    x[8]      c4        135
    x[8]      OBJ       -932
    x[9]      c1        734
    x[9]      c2        501
    x[9]      c3        312
    x[9]      c4        172
    x[9]      OBJ       -151
    x[10]     c1        79
    x[10]     c2        491
    x[10]     c3        318
    x[10]     c4        859
    x[10]     OBJ       -846
    x[11]     c1        322
    x[11]     c2        451
    x[11]     c3        137
    x[11]     c4        236
    x[11]     OBJ       -37
    x[12]     c1        378
    x[12]     c2        2
    x[12]     c3        701
    x[12]     c4        546
    x[12]     OBJ       -577
    x[13]     c1        683
    x[13]     c2        728
    x[13]     c3        332
    x[13]     c4        924
    x[13]     OBJ       -734
    x[14]     c1        678
    x[14]     c2        808
    x[14]     c3        171
    x[14]     c4        108
    x[14]     OBJ       -240
    x[15]     c1        749
    x[15]     c2        459
    x[15]     c3        97
    x[15]     c4        564
    x[15]     OBJ       -489
    x[16]     c1        765
    x[16]     c2        873
    x[16]     c3        198
    x[16]     c4        779
    x[16]     OBJ       -277
    x[17]     c1        500
    x[17]     c2        689
    x[17]     c3        743
    x[17]     c4        414
    x[17]     OBJ       -405
    x[18]     c1        640
    x[18]     c2        864
    x[18]     c3        322
    x[18]     c4        464
    x[18]     OBJ       -732
    x[19]     c1        842
    x[19]     c2        699
    x[19]     c3        228
    x[19]     c4        921
    x[19]     OBJ       -177
    x[20]     c1        941
    x[20]     c2        670
    x[20]     c3        459
    x[20]     c4        931
    x[20]     OBJ       -564
    x[21]     c1        899
    x[21]     c2        994
    x[21]     c3        310
    x[21]     c4        233
    x[21]     OBJ       -868
    x[22]     c1        433
    x[22]     c2        280
    x[22]     c3        485
    x[22]     c4        535
    x[22]     OBJ       -422
    x[23]     c1        206
    x[23]     c2        890
    x[23]     c3        514
    x[23]     c4        84
    x[23]     OBJ       -998
    x[24]     c1        712
    x[24]     c2        294
    x[24]     c3        585
    x[24]     c4        104
    x[24]     OBJ       -56
    x[25]     c1        389
    x[25]     c2        211
    x[25]     c3        172
    x[25]     c4        645
    x[25]     OBJ       -116
    x[26]     c1        965
    x[26]     c2        702
    x[26]     c3        979
    x[26]     c4        823
    x[26]     OBJ       -119
    x[27]     c1        266
    x[27]     c2        860
    x[27]     c3        42
    x[27]     c4        151
    x[27]     OBJ       -638
    x[28]     c1        926
    x[28]     c2        544
    x[28]     c3        218
    x[28]     c4        392
    x[28]     OBJ       -177
    x[29]     c1        68
    x[29]     c2        694
    x[29]     c3        908
    x[29]     c4        421
    x[29]     OBJ       -932
    x[30]     c1        739
    x[30]     c2        454
    x[30]     c3        262
    x[30]     c4        481
    x[30]     OBJ       -330
    x[31]     c1        980
    x[31]     c2        672
    x[31]     c3        322
    x[31]     c4        519
    x[31]     OBJ       -381
    x[32]     c1        484
    x[32]     c2        96
    x[32]     c3        359
    x[32]     c4        617
    x[32]     OBJ       -120
    x[33]     c1        617
    x[33]     c2        887
    x[33]     c3        818
    x[33]     c4        659
    x[33]     OBJ       -541
    x[34]     c1        520
    x[34]     c2        706
    x[34]     c3        493
    x[34]     c4        81
    x[34]     OBJ       -212
    x[35]     c1        524
    x[35]     c2        595
    x[35]     c3        42
    x[35]     c4        10
    x[35]     OBJ       -14
    x[36]     c1        887
    x[36]     c2        246
    x[36]     c3        686
    x[36]     c4        836
    x[36]     OBJ       -934
    x[37]     c1        160
    x[37]     c2        488
    x[37]     c3        168
    x[37]     c4        596
    x[37]     OBJ       -994
    x[38]     c1        917
    x[38]     c2        705
    x[38]     c3        412
    x[38]     c4        405
    x[38]     OBJ       -849
    x[39]     c1        503
    x[39]     c2        211
    x[39]     c3        628
    x[39]     c4        352
    x[39]     OBJ       -509
    x[40]     c1        443
    x[40]     c2        401
    x[40]     c3        185
    x[40]     c4        179
    x[40]     OBJ       -251
    x[41]     c1        549
    x[41]     c2        969
    x[41]     c3        658
    x[41]     c4        427
    x[41]     OBJ       -383
    x[42]     c1        295
    x[42]     c2        895
    x[42]     c3        386
    x[42]     c4        972
    x[42]     OBJ       -455
    x[43]     c1        202
    x[43]     c2        243
    x[43]     c3        882
    x[43]     c4        220
    x[43]     OBJ       -674
    x[44]     c1        341
    x[44]     c2        386
    x[44]     c3        486
    x[44]     c4        246
    x[44]     OBJ       -881
    x[45]     c1        960
    x[45]     c2        65
    x[45]     c3        107
    x[45]     c4        499
    x[45]     OBJ       -876
RHS
    rhs       c1        13144
    rhs       c2        12422
    rhs       c3        9706
    rhs       c4        10289
RANGES
BOUNDS
 BV bounds    x[1]
 BV bounds    x[2]
 BV bounds    x[3]
 BV bounds    x[4]
 BV bounds    x[5]
 BV bounds    x[6]
 BV bounds    x[7]
 BV bounds    x[8]
 BV bounds    x[9]
 BV bounds    x[10]
 BV bounds    x[11]
 BV bounds    x[12]
 BV bounds    x[13]
 BV bounds    x[14]
 BV bounds    x[15]
 BV bounds    x[16]
 BV bounds    x[17]
 BV bounds    x[18]
 BV bounds    x[19]
 BV bounds    x[20]
 BV bounds    x[21]
 BV bounds    x[22]
 BV bounds    x[23]
 BV bounds    x[24]
 BV bounds    x[25]
 BV bounds    x[26]
 BV bounds    x[27]
 BV bounds    x[28]
 BV bounds    x[29]
 BV bounds    x[30]
 BV bounds    x[31]
 BV bounds    x[32]
 BV bounds    x[33]
 BV bounds    x[34]
 BV bounds    x[35]
 BV bounds    x[36]
 BV bounds    x[37]
 BV bounds    x[38]
 BV bounds    x[39]
 BV bounds    x[40]
 BV bounds    x[41]
 BV bounds    x[42]
 BV bounds    x[43]
 BV bounds    x[44]
 BV bounds    x[45]
ENDATA
